% File represents an instance of a Composite Structure problem to be solved by a CP framework
% Created on 2025-03-26 10:41:24.707
T = 54;
n = 16;
m = 24;
edges = [(2, 1),
(5, 6),
(10, 9),
(14, 13),
(2, 3),
(7, 6),
(11, 10),
(15, 14),
(4, 3),
(8, 7),
(12, 11),
(16, 15),
(5, 1),
(5, 9),
(13, 9),
(2, 6),
(10, 6),
(14, 10),
(7, 3),
(11, 7),
(15, 11),
(8, 4),
(12, 8),
(16, 12)];
counts = [|8, 4, 8, 16,
|10, 4, 10, 18,
|8, 4, 8, 18,
|10, 4, 10, 20,
|10, 4, 10, 18,
|10, 2, 10, 16,
|10, 6, 10, 18,
|10, 8, 10, 22,
|10, 4, 10, 16,
|10, 8, 10, 16,
|10, 8, 10, 18,
|10, 10, 10, 22,
|10, 8, 10, 18,
|10, 10, 10, 20,
|10, 10, 10, 22,
|10, 10, 10, 24|];
